projects/1-Weaving-english/YETI/OLD/level07.lp
%%%%%
%rgr%
%b b%
%gbg%
%%%%%

% Solutions: 0

dim(3). steps(6).
color(red). color(blue). color(green).
square_color(1,1,red).
square_color(2,1,green).
square_color(3,1,red).
square_color(1,2,blue).
square_color(3,2,blue).
square_color(1,3,green).
square_color(2,3,blue).
square_color(3,3,green).
gets_painted(x,1,red,1).
